NAME: line_20_2
TYPE: TSP
COMMENT: line_20_2
DIMENSION: 20
EDGE_WEIGHT_TYPE: EUC_2D
NODE_COORD_SECTION
1 0.0 146.0
2 0.0 59.0
3 0.0 98.0
4 0.0 132.0
5 0.0 136.0
6 0.0 185.0
7 0.0 191.0
8 0.0 102.0
9 0.0 131.0
10 0.0 5.0
11 0.0 134.0
12 0.0 154.0
13 0.0 3.0
14 0.0 174.0
15 0.0 0.0
16 0.0 22.0
17 0.0 7.0
18 0.0 60.0
19 0.0 179.0
20 0.0 119.0
